9 74
0 -1 -1 -1 -1 -1 -1 -1 -1 
-1 0 5 48 78 48 33 21 19 
-1 5 0 88 72 99 41 63 80 
-1 48 88 0 78 85 80 74 99 
-1 78 72 78 0 58 70 30 100 
-1 48 99 85 58 0 42 22 70 
-1 33 41 80 70 42 0 76 68 
-1 21 63 74 30 22 76 0 24 
-1 19 80 99 100 70 68 24 0 
